/*LP for potential heuristic, domain:logistics00, problem:probLOGISTICS-4-0.pddl, agent:*/

max: PV6v33 + PV5v31 + PV4v19 + PV3v14 + PV2v9 + PV1v3 + PV0v0 +  0;

PV5v31 <= MV5;
PV5v25 <= MV5;
PV6v33 <= MV6;
PV1v3 <= MV1;
PV2v8 <= MV2;
PV6v32 <= MV6;
PV2v9 <= MV2;
PV5v27 <= MV5;
PV5v29 <= MV5;
PV2v4 <= MV2;
PV3v16 <= MV3;
PV1v2 <= MV1;
PV4v21 <= MV4;
PV4v22 <= MV4;
PV3v12 <= MV3;
PV4v19 <= MV4;
PV3v15 <= MV3;
PV2v5 <= MV2;
PV3v11 <= MV3;
PV5v30 <= MV5;
PV4v18 <= MV4;
PV2v6 <= MV2;
PV0v1 <= MV0;
PV4v20 <= MV4;
PV3v13 <= MV3;
PV3v14 <= MV3;
PV4v24 <= MV4;
PV4v23 <= MV4;
PV0v0 <= MV0;
PV2v10 <= MV2;
PV2v7 <= MV2;
PV5v26 <= MV5;
PV3v17 <= MV3;
PV5v28 <= MV5;
MV0 + MV1 + PV2v5 + PV3v11 + PV4v20 + PV5v27 + MV6 +  0 <= 0;
PV3v16 - PV3v17 +  0 <= 1;
PV4v19 - PV4v23 +  0 <= 1;
PV5v26 - PV5v30 +  0 <= 1;
PV2v6 - PV2v4 +  0 <= 1;
PV2v9 - PV2v8 +  0 <= 1;
PV2v6 - PV2v10 +  0 <= 1;
PV4v23 - PV4v24 +  0 <= 1;
PV4v23 - PV4v19 +  0 <= 1;
PV4v18 - PV4v20 +  0 <= 1;
PV4v22 - PV4v24 +  0 <= 1;
PV1v2 - PV1v3 +  0 <= 1;
PV6v33 - PV6v32 +  0 <= 1;
PV3v17 - PV3v16 +  0 <= 1;
PV4v24 - PV4v23 +  0 <= 1;
PV3v16 - PV3v12 +  0 <= 1;
PV5v28 - PV5v27 +  0 <= 1;
PV5v28 - PV5v30 +  0 <= 1;
PV3v11 - PV3v12 +  0 <= 1;
PV4v21 - PV4v22 +  0 <= 1;
PV4v21 - PV4v18 +  0 <= 1;
PV2v4 - PV2v8 +  0 <= 1;
PV4v24 - PV4v22 +  0 <= 1;
PV4v22 - PV4v21 +  0 <= 1;
PV5v29 - PV5v26 +  0 <= 1;
PV2v5 - PV2v7 +  0 <= 1;
PV3v12 - PV3v16 +  0 <= 1;
PV2v7 - PV2v5 +  0 <= 1;
PV0v0 - PV0v1 +  0 <= 1;
PV3v12 - PV3v11 +  0 <= 1;
PV1v3 - PV1v2 +  0 <= 1;
PV3v14 - PV3v15 +  0 <= 1;
PV3v13 - PV3v17 +  0 <= 1;
PV4v20 - PV4v18 +  0 <= 1;
PV2v10 - PV2v7 +  0 <= 1;
PV5v25 - PV5v31 +  0 <= 1;
PV6v32 - PV6v33 +  0 <= 1;
PV2v4 - PV2v6 +  0 <= 1;
PV2v10 - PV2v6 +  0 <= 1;
PV3v15 - PV3v14 +  0 <= 1;
PV0v1 - PV0v0 +  0 <= 1;
PV5v27 - PV5v28 +  0 <= 1;
PV5v30 - PV5v28 +  0 <= 1;
PV5v25 - PV5v27 +  0 <= 1;
PV2v8 - PV2v9 +  0 <= 1;
PV2v8 - PV2v4 +  0 <= 1;
PV3v11 - PV3v15 +  0 <= 1;
PV3v15 - PV3v11 +  0 <= 1;
PV3v17 - PV3v13 +  0 <= 1;
PV4v18 - PV4v21 +  0 <= 1;
PV5v31 - PV5v25 +  0 <= 1;
PV2v7 - PV2v10 +  0 <= 1;
PV5v27 - PV5v25 +  0 <= 1;
PV5v26 - PV5v29 +  0 <= 1;
PV5v30 - PV5v26 +  0 <= 1;
